41
75
52	1
51	2
50	5
49	1
48	3
47	3
46	1
45	1
43	2
42	5
41	3
40	2
39	2
38	1
36	1
35	3
34	2
33	4
32	2
31	2
30	4
29	1
28	5
27	2
25	2
24	3
22	3
20	3
19	1
18	6
17	1
16	4
15	2
14	1
13	2
12	3
11	1
10	2
9	2
8	1
7	5
